10	5
0	5	4	3	2	1	5
1	2	7	9
2	0
3	2	6	9
4	2	8	9
5	1	8
6	1	11
7	1	10
8	1	7
9	1	11
10	1	11
11	0
0	0	0	0	0	0	0
1	9	1	1	3	1	5
2	2	5	1	3	5	2
3	10	5	5	2	3	5
4	2	3	1	3	3	1
5	9	5	2	5	1	5
6	7	2	2	5	5	3
7	6	4	2	4	1	2
8	2	1	4	4	2	1
9	4	2	3	2	5	2
10	8	2	5	2	3	3
11	0	0	0	0	0	0
5	5	5	5	5
